NAME          ClpDefau
ROWS
 N  OBJROW
 L  R0000000
 L  R0000001
 L  R0000002
 L  R0000003
 N  R0000004
 N  R0000005
 N  R0000006
 N  R0000007
 L  R0000008
 L  R0000009
 L  R0000010
 L  R0000011
 L  R0000012
 L  R0000013
 L  R0000014
 L  R0000015
 L  R0000016
 L  R0000017
 L  R0000018
 L  R0000019
 L  R0000020
 L  R0000021
 L  R0000022
 L  R0000023
 L  R0000024
 L  R0000025
 L  R0000026
 L  R0000027
 L  R0000028
 L  R0000029
 L  R0000030
 L  R0000031
COLUMNS
    C0000000  R0000000  1.             R0000012  1.          
    C0000000  R0000020   -1.           R0000028  1.          
    C0000001  R0000000  1.             R0000016  1.          
    C0000001  R0000024   -1.           R0000029  1.          
    C0000002  R0000002  1.             R0000016  1.          
    C0000002  R0000024   -1.           R0000030  1.          
    C0000002  R0000031  1.          
    C0000003  R0000008  1.             R0000012   -1.        
    C0000003  R0000014  1.             R0000020  1.          
    C0000003  R0000022   -1.        
    C0000004  R0000009  1.             R0000012   -1.        
    C0000004  R0000018  1.             R0000020  1.          
    C0000004  R0000026   -1.        
    C0000005  R0000010  1.             R0000014  1.          
    C0000005  R0000016   -1.           R0000022   -1.        
    C0000005  R0000024  1.          
    C0000006  R0000011  1.             R0000016   -1.        
    C0000006  R0000018  1.             R0000024  1.          
    C0000006  R0000026   -1.        
    C0000007  OBJROW    1.             R0000004  1.          
    C0000007  R0000014   -1.           R0000022  1.          
    C0000008  OBJROW    1.             R0000006  1.          
    C0000008  R0000014   -1.           R0000022  1.          
    C0000009  OBJROW    1.             R0000004  1.          
    C0000009  R0000018   -1.           R0000026  1.          
    C0000010  OBJROW    1.             R0000006  1.          
    C0000010  R0000018   -1.           R0000026  1.          
    C0000011  R0000001  1.             R0000013  1.          
    C0000011  R0000021   -1.           R0000028  1.          
    C0000012  R0000001  1.             R0000017  1.          
    C0000012  R0000025   -1.           R0000029  1.          
    C0000013  R0000003  1.             R0000017  1.          
    C0000013  R0000025   -1.           R0000030  1.          
    C0000013  R0000031  1.          
    C0000014  R0000008  1.             R0000013   -1.        
    C0000014  R0000015  1.             R0000021  1.          
    C0000014  R0000023   -1.        
    C0000015  R0000009  1.             R0000013   -1.        
    C0000015  R0000019  1.             R0000021  1.          
    C0000015  R0000027   -1.        
    C0000016  R0000010  1.             R0000015  1.          
    C0000016  R0000017   -1.           R0000023   -1.        
    C0000016  R0000025  1.          
    C0000017  R0000011  1.             R0000017   -1.        
    C0000017  R0000019  1.             R0000025  1.          
    C0000017  R0000027   -1.        
    C0000018  OBJROW    1.             R0000005  1.          
    C0000018  R0000015   -1.           R0000023  1.          
    C0000019  OBJROW    1.             R0000007  1.          
    C0000019  R0000015   -1.           R0000023  1.          
    C0000020  OBJROW    1.             R0000005  1.          
    C0000020  R0000019   -1.           R0000027  1.          
    C0000021  OBJROW    1.             R0000007  1.          
    C0000021  R0000019   -1.           R0000027  1.          
RHS
    RHS       R0000000  8.             R0000002  8.          
    RHS       R0000003  8.             R0000008  70.         
    RHS       R0000009  70.            R0000010  70.         
    RHS       R0000011  70.            R0000028  8.          
    RHS       R0000029  8.             R0000030  8.          
    RHS       R0000031  8.          
ENDATA
